
;this file is automatically generated: Tue Dec 24 20:22:08 GMT 2019

;declarations generated

(declare-fun oclExcludes ( Int Int) Bool)
(declare-fun type_0a26dc25_5914_416b_aa55_fe97cccb5153_Student ( Int) Bool)
(declare-fun rel_50c4b75a_afb6_436f_86db_4ae65f4ffcc7_study ( Int Int) Bool)
(declare-fun Cardinality ( Int) Int)
(declare-fun student_year ( Int) Int)
(declare-fun obj_e433eecd_7c74_4f0b_9d4b_6dfcf74b2ecf ( Int) Int)
(declare-fun type_0a26dc25_5914_416b_aa55_fe97cccb5153_Module ( Int) Bool)
(declare-fun oclSelect ( Int Bool) Int)
(declare-fun module_year ( Int) Int)
(declare-fun container_ ( Int) Int)
(declare-fun type_0a26dc25_5914_416b_aa55_fe97cccb5153_Person ( Int) Bool)
(declare-fun oclIncludes ( Int Int) Bool)
(declare-fun ObjAt ( Int Int) Int)

;formula(s) generated
(assert (! (and (forall ((v Int)) (=> (and ( type_0a26dc25_5914_416b_aa55_fe97cccb5153_Student v )  ( type_0a26dc25_5914_416b_aa55_fe97cccb5153_Person v ) ) (>= ( student_year ( obj_e433eecd_7c74_4f0b_9d4b_6dfcf74b2ecf v )  )  1))) (forall ((v Int)) (=> (and ( type_0a26dc25_5914_416b_aa55_fe97cccb5153_Student v )  ( type_0a26dc25_5914_416b_aa55_fe97cccb5153_Person v ) ) (<= ( student_year ( obj_e433eecd_7c74_4f0b_9d4b_6dfcf74b2ecf v )  )  6)))):named l0))
(assert (! (and (exists ((s Int)) (and (and ( type_0a26dc25_5914_416b_aa55_fe97cccb5153_Student s )  ( type_0a26dc25_5914_416b_aa55_fe97cccb5153_Person s ) ) (= ( student_year ( obj_e433eecd_7c74_4f0b_9d4b_6dfcf74b2ecf s )  )  6))) (exists ((s Int)) (and (and ( type_0a26dc25_5914_416b_aa55_fe97cccb5153_Student s )  ( type_0a26dc25_5914_416b_aa55_fe97cccb5153_Person s ) ) (< ( student_year ( obj_e433eecd_7c74_4f0b_9d4b_6dfcf74b2ecf s )  )  6)))):named l1))
(assert (! (forall ((s1 Int)) (=> (and ( type_0a26dc25_5914_416b_aa55_fe97cccb5153_Student s1 )  ( type_0a26dc25_5914_416b_aa55_fe97cccb5153_Person s1 ) ) (forall ((m1 Int)) (=> (and ( type_0a26dc25_5914_416b_aa55_fe97cccb5153_Module m1 )  ( rel_50c4b75a_afb6_436f_86db_4ae65f4ffcc7_study ( obj_e433eecd_7c74_4f0b_9d4b_6dfcf74b2ecf s1 )   ( obj_e433eecd_7c74_4f0b_9d4b_6dfcf74b2ecf m1 )  ) ) (= ( student_year ( obj_e433eecd_7c74_4f0b_9d4b_6dfcf74b2ecf s1 )  )  ( module_year ( obj_e433eecd_7c74_4f0b_9d4b_6dfcf74b2ecf m1 )  ) ))))):named l2))
(assert (! (and (forall ((v Int)) (=> ( type_0a26dc25_5914_416b_aa55_fe97cccb5153_Module v )  (>= ( module_year ( obj_e433eecd_7c74_4f0b_9d4b_6dfcf74b2ecf v )  )  1))) (forall ((v Int)) (=> ( type_0a26dc25_5914_416b_aa55_fe97cccb5153_Module v )  (<= ( module_year ( obj_e433eecd_7c74_4f0b_9d4b_6dfcf74b2ecf v )  )  5)))):named l3))
(assert (! (forall ((s Int)) (=> (and ( type_0a26dc25_5914_416b_aa55_fe97cccb5153_Student s )  ( type_0a26dc25_5914_416b_aa55_fe97cccb5153_Person s ) ) (exists ((v Int)) (and ( type_0a26dc25_5914_416b_aa55_fe97cccb5153_Module v )  ( rel_50c4b75a_afb6_436f_86db_4ae65f4ffcc7_study ( obj_e433eecd_7c74_4f0b_9d4b_6dfcf74b2ecf s )   ( obj_e433eecd_7c74_4f0b_9d4b_6dfcf74b2ecf v )  ) )))):named l4))
(assert (exists ((o Int)) (and ( type_0a26dc25_5914_416b_aa55_fe97cccb5153_Student ( obj_e433eecd_7c74_4f0b_9d4b_6dfcf74b2ecf o )  )  ( type_0a26dc25_5914_416b_aa55_fe97cccb5153_Person ( obj_e433eecd_7c74_4f0b_9d4b_6dfcf74b2ecf o )  ) )))
(assert (exists ((o Int)) (and (and ( type_0a26dc25_5914_416b_aa55_fe97cccb5153_Student ( obj_e433eecd_7c74_4f0b_9d4b_6dfcf74b2ecf o )  )  ( type_0a26dc25_5914_416b_aa55_fe97cccb5153_Person ( obj_e433eecd_7c74_4f0b_9d4b_6dfcf74b2ecf o )  ) ) ( type_0a26dc25_5914_416b_aa55_fe97cccb5153_Module ( obj_e433eecd_7c74_4f0b_9d4b_6dfcf74b2ecf o )  ) )))

 ;end of formula 